GLPSOL: GLPK LP/MIP Solver, v4.55
Parameter(s) specified in the command line:
 -m tmp.mod
Reading model section from tmp.mod...
Reading data section from tmp.mod...
170 lines were read
Generating obj...
Generating kirhoff...
Generating init_charge...
Generating batt_size...
Model has been successfully generated
GLPK Simplex Optimizer, v4.55
88 rows, 174 columns, 314 non-zeros
Preprocessing...
65 rows, 129 columns, 253 non-zeros
Scaling...
 A: min|aij| =  1.000e+00  max|aij| =  1.000e+00  ratio =  1.000e+00
Problem data seem to be well scaled
Constructing initial basis...
Size of triangular part is 65
      0: obj =   0.000000000e+00  infeas =  1.380e+02 (0)
*    26: obj =   5.000000000e+00  infeas =  0.000e+00 (0)
*    27: obj =   5.000000000e+00  infeas =  0.000e+00 (0)
OPTIMAL LP SOLUTION FOUND
Time used:   0.0 secs
Memory used: 0.4 Mb (419860 bytes)
#OUTPUT:
5
-9 -9 0 -12 -13 0 -5 0 0 -5 0 -18 0 -17 -8 -2 
-9 -9 -16 -1 0 0 -1 -6 0 0 0 0 0 -17 0 0 
-9 -9 -2 -14 0 -2 1 0 0 0 0 0 -1 -17 -11 -13 
0 0 0 0 0 0 0 0 0 0 0 0 0 0 0 0 
0 0 0 0 0 0 0 0 0 0 0 0 0 0 0 0 
#OUTPUT END
Model has been successfully processed
